103931
0,9,28,13,69,61,79,65,35,25,75,66,19,16,55,50,71,80,59,46,48,33,56,42,2,11,22,54,41,24,14,68,77,40,51,38,62,3,49,64,17,36,12,20,47,23,30,18,4,21,43,67,58,52,82,7,27,60,5,78,34,29,1,37,15,26,6,32,10,74,81,39,31,73,57,76,8,70,53,45,44,72,63,0